clay0305m.py
Ipopt 3.12: 
==> Warning: Treating 55 binary and 0 integer variables as continous.


******************************************************************************
This program contains Ipopt, a library for large-scale nonlinear optimization.
 Ipopt is released as open source code under the Eclipse Public License (EPL).
         For more information visit http://projects.coin-or.org/Ipopt
******************************************************************************

This is Ipopt version 3.12, running with linear solver ma27.

Number of nonzeros in equality constraint Jacobian...:       55
Number of nonzeros in inequality constraint Jacobian.:      420
Number of nonzeros in Lagrangian Hessian.............:       10

Total number of variables............................:       85
                     variables with only lower bounds:       20
                variables with lower and upper bounds:       65
                     variables with only upper bounds:        0
Total number of equality constraints.................:       15
Total number of inequality constraints...............:      140
        inequality constraints with only lower bounds:       40
   inequality constraints with lower and upper bounds:        0
        inequality constraints with only upper bounds:      100

iter    objective    inf_pr   inf_du lg(mu)  ||d||  lg(rg) alpha_du alpha_pr  ls
   0  2.5699974e+01 5.70e+01 3.23e+01  -1.0 0.00e+00    -  0.00e+00 0.00e+00   0
   1  1.1264515e+01 5.59e+01 3.22e+01  -1.0 9.58e+01    -  1.14e-02 1.67e-02f  1
   2  7.7466267e+00 5.29e+01 3.19e+01  -1.0 8.86e+01    -  2.94e-02 4.18e-02f  1
   3  7.6594594e+00 4.82e+01 3.53e+01  -1.0 5.63e+01    -  2.17e-02 8.85e-02f  1
   4  7.2192078e+00 5.50e+01 3.64e+01  -1.0 1.63e+01    -  7.09e-02 1.40e-01f  1
   5  7.8349683e+00 6.04e+01 1.97e+01  -1.0 1.29e+01    -  3.42e-01 2.51e-01f  1
   6  7.0643887e+00 2.01e+01 2.49e+01  -1.0 1.05e+01    -  4.57e-01 8.61e-01H  1
   7  8.1097021e+00 1.55e+00 7.71e+00  -1.0 1.89e+00    -  7.52e-01 5.02e-01h  1
   8  9.8166662e+00 9.79e-03 1.76e+00  -1.0 1.83e+00    -  7.06e-01 7.37e-01h  1
   9  1.2092335e+01 3.48e-03 9.44e+00  -1.0 6.71e+00    -  3.76e-01 6.60e-01f  1
iter    objective    inf_pr   inf_du lg(mu)  ||d||  lg(rg) alpha_du alpha_pr  ls
  10  1.5065237e+01 7.19e-04 9.89e+00  -1.0 9.12e+00    -  5.99e-01 7.84e-01f  1
  11  1.7830891e+01 2.22e-16 7.38e+00  -1.0 1.94e+01    -  6.43e-01 1.00e+00f  1
  12  1.8000287e+01 0.00e+00 1.60e+00  -1.0 3.71e+01    -  6.34e-01 1.00e+00h  1
  13  1.7999972e+01 2.22e-16 5.34e-04  -1.0 1.52e+01    -  1.00e+00 1.00e+00h  1
  14  5.0909343e-01 1.11e-16 6.47e-06  -2.5 1.52e-01    -  1.00e+00 1.00e+00f  1
  15  2.7050644e-02 0.00e+00 2.90e-07  -3.8 2.08e-01    -  1.00e+00 1.00e+00f  1
  16  3.0638461e-04 1.11e-16 3.46e-09  -5.7 4.62e-02    -  1.00e+00 1.00e+00h  1
  17 -2.5248937e-05 2.22e-16 4.73e-12  -8.6 5.05e-03    -  1.00e+00 1.00e+00h  1

Number of Iterations....: 17

                                   (scaled)                 (unscaled)
Objective...............:  -8.4163124528159113e-06   -2.5248937358447734e-05
Dual infeasibility......:   4.7348345184724958e-12    1.4204503555417487e-11
Constraint violation....:   2.2204460492503131e-16    2.2204460492503131e-16
Complementarity.........:   2.7044397963656167e-09    8.1133193890968501e-09
Overall NLP error.......:   2.7044397963656167e-09    8.1133193890968501e-09


Number of objective function evaluations             = 19
Number of objective gradient evaluations             = 18
Number of equality constraint evaluations            = 19
Number of inequality constraint evaluations          = 19
Number of equality constraint Jacobian evaluations   = 18
Number of inequality constraint Jacobian evaluations = 18
Number of Lagrangian Hessian evaluations             = 17
Total CPU secs in IPOPT (w/o function evaluations)   =      0.010
Total CPU secs in NLP function evaluations           =      0.001

EXIT: Optimal Solution Found.

Time elapsed: 0.12488985061645508